24-1-密码设计与分析-向泽军/GIFT/最少活跃S盒/gift_min_active_sbox.lp
Minimize
A_0_0 + A_0_1 + A_0_2 + A_0_3 + A_0_4 + A_0_5 + A_0_6 + A_0_7 + A_0_8 + A_0_9 + A_0_10 + A_0_11 + A_0_12 + A_0_13 + A_0_14 + A_0_15
Subject To
x_0_0 + x_0_1 + x_0_2 + x_0_3 + x_0_4 + x_0_5 + x_0_6 + x_0_7 + x_0_8 + x_0_9 + x_0_10 + x_0_11 + x_0_12 + x_0_13 + x_0_14 + x_0_15 + x_0_16 + x_0_17 + x_0_18 + x_0_19 + x_0_20 + x_0_21 + x_0_22 + x_0_23 + x_0_24 + x_0_25 + x_0_26 + x_0_27 + x_0_28 + x_0_29 + x_0_30 + x_0_31 + x_0_32 + x_0_33 + x_0_34 + x_0_35 + x_0_36 + x_0_37 + x_0_38 + x_0_39 + x_0_40 + x_0_41 + x_0_42 + x_0_43 + x_0_44 + x_0_45 + x_0_46 + x_0_47 + x_0_48 + x_0_49 + x_0_50 + x_0_51 + x_0_52 + x_0_53 + x_0_54 + x_0_55 + x_0_56 + x_0_57 + x_0_58 + x_0_59 + x_0_60 + x_0_61 + x_0_62 + x_0_63 >= 0
4 x_0_0 + 4 x_0_1 + 4 x_0_2 + 4 x_0_3 - x_0_0 - x_0_5 - x_0_14 - x_0_7 >= 0
4 x_0_0 + 4 x_0_5 + 4 x_0_14 + 4 x_0_7 - x_0_0 - x_0_1 - x_0_2 - x_0_3 >= 0
A_0_0 - x_0_0 >= 0
A_0_0 - x_0_1 >= 0
A_0_0 - x_0_2 >= 0
A_0_0 - x_0_3 >= 0
4 x_0_4 + 4 x_0_5 + 4 x_0_6 + 4 x_0_7 - x_0_16 - x_0_21 - x_0_30 - x_0_23 >= 0
4 x_0_16 + 4 x_0_21 + 4 x_0_30 + 4 x_0_23 - x_0_4 - x_0_5 - x_0_6 - x_0_7 >= 0
A_0_1 - x_0_4 >= 0
A_0_1 - x_0_5 >= 0
A_0_1 - x_0_6 >= 0
A_0_1 - x_0_7 >= 0
4 x_0_8 + 4 x_0_9 + 4 x_0_10 + 4 x_0_11 - x_0_32 - x_0_37 - x_0_46 - x_0_39 >= 0
4 x_0_32 + 4 x_0_37 + 4 x_0_46 + 4 x_0_39 - x_0_8 - x_0_9 - x_0_10 - x_0_11 >= 0
A_0_2 - x_0_8 >= 0
A_0_2 - x_0_9 >= 0
A_0_2 - x_0_10 >= 0
A_0_2 - x_0_11 >= 0
4 x_0_12 + 4 x_0_13 + 4 x_0_14 + 4 x_0_15 - x_0_48 - x_0_53 - x_0_62 - x_0_55 >= 0
4 x_0_48 + 4 x_0_53 + 4 x_0_62 + 4 x_0_55 - x_0_12 - x_0_13 - x_0_14 - x_0_15 >= 0
A_0_3 - x_0_12 >= 0
A_0_3 - x_0_13 >= 0
A_0_3 - x_0_14 >= 0
A_0_3 - x_0_15 >= 0
4 x_0_16 + 4 x_0_17 + 4 x_0_18 + 4 x_0_19 - x_0_12 - x_0_1 - x_0_10 - x_0_3 >= 0
4 x_0_12 + 4 x_0_1 + 4 x_0_10 + 4 x_0_3 - x_0_16 - x_0_17 - x_0_18 - x_0_19 >= 0
A_0_4 - x_0_16 >= 0
A_0_4 - x_0_17 >= 0
A_0_4 - x_0_18 >= 0
A_0_4 - x_0_19 >= 0
4 x_0_20 + 4 x_0_21 + 4 x_0_22 + 4 x_0_23 - x_0_28 - x_0_17 - x_0_26 - x_0_19 >= 0
4 x_0_28 + 4 x_0_17 + 4 x_0_26 + 4 x_0_19 - x_0_20 - x_0_21 - x_0_22 - x_0_23 >= 0
A_0_5 - x_0_20 >= 0
A_0_5 - x_0_21 >= 0
A_0_5 - x_0_22 >= 0
A_0_5 - x_0_23 >= 0
4 x_0_24 + 4 x_0_25 + 4 x_0_26 + 4 x_0_27 - x_0_44 - x_0_33 - x_0_42 - x_0_35 >= 0
4 x_0_44 + 4 x_0_33 + 4 x_0_42 + 4 x_0_35 - x_0_24 - x_0_25 - x_0_26 - x_0_27 >= 0
A_0_6 - x_0_24 >= 0
A_0_6 - x_0_25 >= 0
A_0_6 - x_0_26 >= 0
A_0_6 - x_0_27 >= 0
4 x_0_28 + 4 x_0_29 + 4 x_0_30 + 4 x_0_31 - x_0_60 - x_0_49 - x_0_58 - x_0_51 >= 0
4 x_0_60 + 4 x_0_49 + 4 x_0_58 + 4 x_0_51 - x_0_28 - x_0_29 - x_0_30 - x_0_31 >= 0
A_0_7 - x_0_28 >= 0
A_0_7 - x_0_29 >= 0
A_0_7 - x_0_30 >= 0
A_0_7 - x_0_31 >= 0
4 x_0_32 + 4 x_0_33 + 4 x_0_34 + 4 x_0_35 - x_0_8 - x_0_13 - x_0_6 - x_0_15 >= 0
4 x_0_8 + 4 x_0_13 + 4 x_0_6 + 4 x_0_15 - x_0_32 - x_0_33 - x_0_34 - x_0_35 >= 0
A_0_8 - x_0_32 >= 0
A_0_8 - x_0_33 >= 0
A_0_8 - x_0_34 >= 0
A_0_8 - x_0_35 >= 0
4 x_0_36 + 4 x_0_37 + 4 x_0_38 + 4 x_0_39 - x_0_24 - x_0_29 - x_0_22 - x_0_31 >= 0
4 x_0_24 + 4 x_0_29 + 4 x_0_22 + 4 x_0_31 - x_0_36 - x_0_37 - x_0_38 - x_0_39 >= 0
A_0_9 - x_0_36 >= 0
A_0_9 - x_0_37 >= 0
A_0_9 - x_0_38 >= 0
A_0_9 - x_0_39 >= 0
4 x_0_40 + 4 x_0_41 + 4 x_0_42 + 4 x_0_43 - x_0_40 - x_0_45 - x_0_38 - x_0_47 >= 0
4 x_0_40 + 4 x_0_45 + 4 x_0_38 + 4 x_0_47 - x_0_40 - x_0_41 - x_0_42 - x_0_43 >= 0
A_0_10 - x_0_40 >= 0
A_0_10 - x_0_41 >= 0
A_0_10 - x_0_42 >= 0
A_0_10 - x_0_43 >= 0
4 x_0_44 + 4 x_0_45 + 4 x_0_46 + 4 x_0_47 - x_0_56 - x_0_61 - x_0_54 - x_0_63 >= 0
4 x_0_56 + 4 x_0_61 + 4 x_0_54 + 4 x_0_63 - x_0_44 - x_0_45 - x_0_46 - x_0_47 >= 0
A_0_11 - x_0_44 >= 0
A_0_11 - x_0_45 >= 0
A_0_11 - x_0_46 >= 0
A_0_11 - x_0_47 >= 0
4 x_0_48 + 4 x_0_49 + 4 x_0_50 + 4 x_0_51 - x_0_4 - x_0_9 - x_0_2 - x_0_11 >= 0
4 x_0_4 + 4 x_0_9 + 4 x_0_2 + 4 x_0_11 - x_0_48 - x_0_49 - x_0_50 - x_0_51 >= 0
A_0_12 - x_0_48 >= 0
A_0_12 - x_0_49 >= 0
A_0_12 - x_0_50 >= 0
A_0_12 - x_0_51 >= 0
4 x_0_52 + 4 x_0_53 + 4 x_0_54 + 4 x_0_55 - x_0_20 - x_0_25 - x_0_18 - x_0_27 >= 0
4 x_0_20 + 4 x_0_25 + 4 x_0_18 + 4 x_0_27 - x_0_52 - x_0_53 - x_0_54 - x_0_55 >= 0
A_0_13 - x_0_52 >= 0
A_0_13 - x_0_53 >= 0
A_0_13 - x_0_54 >= 0
A_0_13 - x_0_55 >= 0
4 x_0_56 + 4 x_0_57 + 4 x_0_58 + 4 x_0_59 - x_0_36 - x_0_41 - x_0_34 - x_0_43 >= 0
4 x_0_36 + 4 x_0_41 + 4 x_0_34 + 4 x_0_43 - x_0_56 - x_0_57 - x_0_58 - x_0_59 >= 0
A_0_14 - x_0_56 >= 0
A_0_14 - x_0_57 >= 0
A_0_14 - x_0_58 >= 0
A_0_14 - x_0_59 >= 0
4 x_0_60 + 4 x_0_61 + 4 x_0_62 + 4 x_0_63 - x_0_52 - x_0_57 - x_0_50 - x_0_59 >= 0
4 x_0_52 + 4 x_0_57 + 4 x_0_50 + 4 x_0_59 - x_0_60 - x_0_61 - x_0_62 - x_0_63 >= 0
A_0_15 - x_0_60 >= 0
A_0_15 - x_0_61 >= 0
A_0_15 - x_0_62 >= 0
A_0_15 - x_0_63 >= 0
Binary
A_0_0
A_0_1
A_0_2
A_0_3
A_0_4
A_0_5
A_0_6
A_0_7
A_0_8
A_0_9
A_0_10
A_0_11
A_0_12
A_0_13
A_0_14
A_0_15
END